NAME : census.pruned_local_8.-47447730.tour
COMMENT : Length = -47447730
TYPE : TOUR
DIMENSION : 68
TOUR_SECTION
65
61
59
55
48
45
29
51
43
2
39
50
3
1
54
66
27
33
34
37
52
49
20
19
18
17
15
47
32
9
8
63
67
62
14
16
5
38
36
35
30
26
24
22
21
23
25
28
31
46
42
40
13
11
7
4
6
10
12
56
41
44
53
57
58
60
64
68
-1
EOF
